NAME	:	X-n200-k9-50-4
COMMENT : 	"Generated by Uchoa, Pecin, Pessoa, Poggi, Subramanian, and Vidal (2013)"	
TYPE : 	CVRP	
DIMENSION : 	200	
EDGE_WEIGHT_TYPE : 	EUC_2D	
CAPACITY : 	402	
NODE_COORD_SECTION		
1	957	135
2	149	141
3	1	96
4	228	268
5	781	529
6	867	797
7	109	53
8	13	449
9	133	293
10	259	172
11	908	678
12	930	867
13	903	766
14	143	263
15	735	501
16	259	253
17	59	62
18	737	464
19	925	587
20	16	404
21	893	720
22	131	188
23	226	228
24	285	68
25	113	323
26	67	307
27	797	381
28	804	573
29	892	838
30	307	141
31	40	347
32	933	708
33	906	725
34	242	231
35	310	255
36	183	308
37	57	153
38	122	254
39	1	437
40	83	548
41	872	427
42	118	317
43	100	402
44	54	335
45	180	118
46	875	774
47	792	774
48	92	166
49	890	821
50	184	6
51	189	299
52	230	234
53	61	728
54	147	501
55	180	371
56	756	455
57	121	248
58	747	756
59	890	825
60	275	63
61	67	131
62	96	15
63	709	611
64	893	822
65	121	170
66	770	580
67	122	320
68	695	626
69	712	670
70	101	98
71	824	813
72	256	265
73	726	553
74	248	359
75	864	742
76	149	74
77	872	329
78	847	817
79	864	575
80	976	818
81	193	126
82	79	88
83	97	403
84	284	424
85	907	842
86	808	590
87	146	120
88	66	480
89	824	634
90	9	421
91	152	157
92	318	223
93	853	307
94	184	277
95	268	379
96	183	236
97	93	217
98	207	439
99	280	417
100	80	110
101	20	67
102	142	384
103	165	63
104	62	410
105	176	261
106	223	301
107	830	608
108	7	164
109	188	108
110	770	537
111	168	99
112	641	321
113	174	165
114	886	816
115	53	303
116	216	377
117	214	261
118	104	44
119	393	114
120	222	51
121	261	355
122	894	577
123	35	285
124	93	509
125	127	150
126	873	468
127	60	105
128	133	232
129	147	252
130	778	547
131	227	403
132	46	419
133	82	381
134	83	80
135	43	466
136	246	330
137	337	216
138	83	205
139	9	55
140	127	123
141	121	449
142	72	189
143	771	491
144	73	201
145	181	188
146	727	549
147	26	332
148	221	419
149	17	212
150	59	359
151	798	525
152	714	613
153	91	419
154	229	353
155	875	568
156	241	285
157	236	368
158	45	86
159	446	310
160	128	366
161	163	168
162	322	272
163	958	864
164	754	814
165	136	184
166	111	119
167	120	300
168	686	372
169	32	68
170	224	70
171	113	76
172	228	73
173	216	34
174	218	360
175	157	167
176	58	242
177	84	263
178	330	253
179	903	822
180	900	858
181	270	381
182	15	37
183	79	523
184	207	329
185	130	274
186	870	860
187	791	305
188	13	535
189	800	823
190	224	244
191	580	504
192	88	389
193	3	172
194	62	499
195	791	692
196	186	373
197	300	26
198	52	204
199	163	305
200	135	270
DEMAND_SECTION		
1	0	
2	49	
3	54	
4	52	
5	100	
6	114	
7	61	
8	110	
9	53	
10	28	
11	50	
12	130	
13	107	
14	80	
15	71	
16	59	
17	50	
18	1	
19	121	
20	117	
21	130	
22	74	
23	33	
24	103	
25	64	
26	56	
27	51	
28	41	
29	89	
30	118	
31	27	
32	52	
33	48	
34	37	
35	58	
36	110	
37	123	
38	132	
39	72	
40	23	
41	23	
42	81	
43	83	
44	125	
45	58	
46	102	
47	40	
48	64	
49	112	
50	98	
51	85	
52	64	
53	21	
54	30	
55	44	
56	11	
57	90	
58	36	
59	112	
60	144	
61	83	
62	74	
63	109	
64	61	
65	73	
66	54	
67	59	
68	45	
69	47	
70	127	
71	50	
72	97	
73	68	
74	85	
75	60	
76	91	
77	25	
78	78	
79	101	
80	77	
81	97	
82	87	
83	78	
84	103	
85	87	
86	86	
87	64	
88	52	
89	73	
90	44	
91	88	
92	87	
93	51	
94	69	
95	41	
96	137	
97	89	
98	56	
99	32	
100	90	
101	46	
102	126	
103	28	
104	120	
105	54	
106	56	
107	69	
108	78	
109	47	
110	74	
111	124	
112	6	
113	119	
114	52	
115	70	
116	74	
117	97	
118	37	
119	142	
120	77	
121	63	
122	103	
123	49	
124	5	
125	100	
126	19	
127	101	
128	96	
129	88	
130	110	
131	76	
132	49	
133	119	
134	105	
135	93	
136	85	
137	84	
138	44	
139	93	
140	94	
141	40	
142	46	
143	22	
144	97	
145	74	
146	115	
147	40	
148	61	
149	41	
150	54	
151	67	
152	76	
153	124	
154	54	
155	63	
156	47	
157	124	
158	46	
159	56	
160	73	
161	89	
162	89	
163	62	
164	62	
165	69	
166	120	
167	87	
168	10	
169	128	
170	55	
171	79	
172	65	
173	39	
174	101	
175	42	
176	133	
177	71	
178	33	
179	56	
180	80	
181	108	
182	111	
183	14	
184	72	
185	104	
186	72	
187	38	
188	23	
189	100	
190	102	
191	86	
192	86	
193	77	
194	83	
195	51	
196	34	
197	70	
198	109	
199	82	
200	86	
DEPOT_SECTION		
	1	
	-1	
EOF		
